n_res = 4;
rc = [ 55, 63, 38, 63 ];
n_tasks = 30;
d = [ 3, 8, 6, 3, 5, 8, 9, 1, 5, 9, 10, 3, 2, 10, 8, 3, 9, 6, 5, 5, 2, 5, 7, 1, 10, 1, 2, 8, 8, 8 ];
rr = [| 55, 55, 55, 55, 55, 55, 55, 55, 55, 55, 55, 55, 55, 55, 55, 55, 55, 55, 55, 55, 55, 55, 55, 55, 55, 55, 55, 55, 55, 55
      | 63, 63, 63, 63, 63, 63, 63, 63, 63, 63, 63, 63, 63, 63, 63, 63, 63, 63, 63, 63, 63, 63, 63, 63, 63, 63, 63, 63, 63, 63
      | 38, 38, 38, 38, 38, 38, 38, 38, 38, 38, 38, 38, 38, 38, 38, 38, 38, 38, 38, 38, 38, 38, 38, 38, 38, 38, 38, 38, 38, 38
      | 63, 63, 63, 63, 63, 63, 63, 63, 63, 63, 63, 63, 63, 63, 63, 63, 63, 63, 63, 63, 63, 63, 63, 63, 63, 63, 63, 63, 63, 63|];
suc = [ { 4, 5, 6 },
       { 12, 18, 20 },
       { 7, 11 },
       { 10, 14, 19 },
       { 8, 9, 21 },
       { 17 },
       { 29 },
       { 23, 27, 28 },
       { 24 },
       { 15, 16 },
       { 13 },
       { 19 },
       { 23, 24 },
       { 22, 25 },
       { 28 },
       { 30 },
       { 27 },
       { 25 },
       { 23, 30 },
       { 28 },
       { 26 },
       { 24 },
       { 29 },
       { 26 },
       { 26 },
       { 29 },
       { 30 },
       {  },
       {  },
       {  } ];
